
Gurobi 9.1.2 (win64) logging started Mon Dec  6 12:32:25 2021

Gurobi Optimizer version 9.1.2 build v9.1.2rc0 (win64)
Thread count: 8 physical cores, 8 logical processors, using up to 8 threads
Optimize a model with 1 rows, 34 columns and 33 nonzeros
Model fingerprint: 0xf03cd6c2
Variable types: 1 continuous, 33 integer (33 binary)
Coefficient statistics:
  Matrix range     [1e+00, 1e+01]
  Objective range  [1e+00, 1e+00]
  Bounds range     [1e+01, 1e+01]
  RHS range        [1e+01, 1e+01]
Presolve time: 0.00s
Presolved: 1 rows, 34 columns, 33 nonzeros
Variable types: 1 continuous, 33 integer (33 binary)

Root simplex log...

Iteration    Objective       Primal Inf.    Dual Inf.      Time
       0   -1.3607525e+01   1.177392e-01   0.000000e+00     14s
       4   -1.3607525e+01   0.000000e+00   0.000000e+00     14s

Root relaxation: objective -1.360752e+01, 4 iterations, 0.00 seconds

    Nodes    |    Current Node    |     Objective Bounds      |     Work
 Expl Unexpl |  Obj  Depth IntInf | Incumbent    BestBd   Gap | It/Node Time

     0     0  -13.09331    0    2          -  -13.09331      -     -   14s
H    0     0                       0.6201361  -13.09331  2211%     -   14s
H    0     0                       0.4887695  -13.09331  2779%     -   15s
H    0     0                       0.4887695  -13.09331  2779%     -   15s
     0     0  -10.68002    0    4    0.48877  -10.68002  2285%     -   15s
H    0     0                       0.4887695  -10.68002  2285%     -   16s
     0     0  -10.13184    0    6    0.48877  -10.13184  2173%     -   16s
     0     0   -9.10969    0    7    0.48877   -9.10969  1964%     -   16s
     0     0   -8.83902    0    7    0.48877   -8.83902  1908%     -   16s
     0     0   -8.17575    0    5    0.48877   -8.17575  1773%     -   16s
H    0     0                       0.4887695   -8.17575  1773%     -   17s
     0     0   -8.05172    0    6    0.48877   -8.05172  1747%     -   17s
H    0     0                       0.4887695   -8.05172  1747%     -   17s
     0     0   -7.98924    0    8    0.48877   -7.98924  1735%     -   17s
     0     0   -7.97948    0    8    0.48877   -7.97948  1733%     -   17s
     0     0   -7.96492    0    8    0.48877   -7.96492  1730%     -   17s
     0     0   -7.83766    0    7    0.48877   -7.83766  1704%     -   17s
     0     0   -7.81081    0    7    0.48877   -7.81081  1698%     -   17s
     0     0   -7.68226    0    9    0.48877   -7.68226  1672%     -   17s
     0     0   -7.66490    0    9    0.48877   -7.66490  1668%     -   17s
     0     0   -7.62010    0    8    0.48877   -7.62010  1659%     -   17s
     0     0   -7.59870    0    8    0.48877   -7.59870  1655%     -   17s
     0     0   -7.58316    0    8    0.48877   -7.58316  1651%     -   17s
     0     0   -7.51186    0    8    0.48877   -7.51186  1637%     -   17s
     0     0   -7.48636    0    7    0.48877   -7.48636  1632%     -   17s
     0     0   -7.48567    0    8    0.48877   -7.48567  1632%     -   17s
     0     0   -7.44185    0    7    0.48877   -7.44185  1623%     -   17s
H    0     0                       0.4887695   -7.44185  1623%     -   17s
     0     0   -7.43522    0    8    0.48877   -7.43522  1621%     -   17s
     0     0   -7.32507    0    7    0.48877   -7.32507  1599%     -   17s
     0     0   -7.30585    0    5    0.48877   -7.30585  1595%     -   17s
     0     0   -7.29888    0    6    0.48877   -7.29888  1593%     -   17s
     0     0   -7.16389    0    6    0.48877   -7.16389  1566%     -   17s
     0     0   -7.16389    0    6    0.48877   -7.16389  1566%     -   17s
H    0     0                       0.4887695   -7.16389  1566%     -   17s
     0     2   -6.13826    0    6    0.48877   -6.13826  1356%     -   17s

Cutting planes:
  MIR: 5
  RLT: 1
  Relax-and-lift: 1
  Lazy constraints: 22

Explored 39 nodes (241 simplex iterations) in 17.45 seconds
Thread count was 8 (of 8 available processors)

Solution count 2: 0.48877 0.620136 

Optimal solution found (tolerance 1.00e-04)
Best objective 4.887695217867e-01, best bound 4.887695217867e-01, gap 0.0000%

User-callback calls 317, time in user-callback 20.99 sec
